
Value of objective function: 26.00000000

Actual values of the variables:
tf                             26
t1                             11
t0                              0
t3                             24
y1                              0
ti                              0
t4                             11
t5                             20
t6                              0
t7                              5
y7                              0
t9                             16
t10                             0
y10                             1
t11                             9
r1_7                            1
r1_10                           0
r7_10                           0
